c This is QMaxSAT 2017 based on 14.07
c This is Glucose 3.0
c This is MiniSat 2.2.0
c WARNING: for repeatability, setting FPU to use double precision
c card = mrwto, comp = 0, pmodel = 0, narr = 8, mct = 42, verb = 0
cr firstCPXsol 0 0 0
c top = 127531
c |  Number of variables:    4802                                             |
c |  Number of clauses:      203950                                           |
c |  Weight of hard clauses: 127531                                           |
c |  Number of soft clauses: 18368                                            |
c |  Number of unit soft clauses: 0                                           |
c |  Maximum Cardinality (by unit): 1431952      (0           )               |
c last restart ## conflicts  :  0 1221 
o 1679 | cpuTime 0.040523 s
c Sum of weights = 178994
c A number of soft clauses remained = 2296
c MRWTO encoding for Pseudo-Boolean Constraints
c sizeMax=1679
c No.0 Divisor=12	generated by pow1
c No.1 Divisor=12	generated by pow1
c No.2 Divisor=12	generated by pow1
c p0= 12	p1= 12	p2= 12	
c number of digits = 4
c linkingVar[0].size = 12, linkingVar[1].size = 12, linkingVar[2].size = 12, linkingVar[3].size = 1, 
c Pseudo-Boolean Constraints: 47220 variables and 444589 clauses
c Sum of weights = 178994
c A number of soft clauses remained = 2296
c MRWTO encoding for Pseudo-Boolean Constraints
c sizeMax=1679
c No.0 Divisor=12	generated by pow1
c No.1 Divisor=12	generated by pow1
c No.2 Divisor=12	generated by pow1
c p0= 12	p1= 12	p2= 12	
c number of digits = 4
c linkingVar[0].size = 12, linkingVar[1].size = 12, linkingVar[2].size = 12, linkingVar[3].size = 1, 
c Pseudo-Boolean Constraints: 47220 variables and 444589 clauses
c Sum of weights = 178994
c A number of soft clauses remained = 2296
c MRWTO encoding for Pseudo-Boolean Constraints
c sizeMax=1679
c No.0 Divisor=12	generated by pow1
c No.1 Divisor=12	generated by pow1
c No.2 Divisor=12	generated by pow1
c p0= 12	p1= 12	p2= 12	
c number of digits = 4
c linkingVar[0].size = 12, linkingVar[1].size = 12, linkingVar[2].size = 12, linkingVar[3].size = 1, 
c Pseudo-Boolean Constraints: 47220 variables and 444589 clauses
c Sum of weights = 178994
c A number of soft clauses remained = 2296
c MRWTO encoding for Pseudo-Boolean Constraints
c sizeMax=1679
c No.0 Divisor=12	generated by pow1
c No.1 Divisor=12	generated by pow1
c No.2 Divisor=12	generated by pow1
c p0= 12	p1= 12	p2= 12	
c number of digits = 4
c linkingVar[0].size = 12, linkingVar[1].size = 12, linkingVar[2].size = 12, linkingVar[3].size = 1, 
c Pseudo-Boolean Constraints: 47220 variables and 444589 clauses
c Sum of weights = 178994
c A number of soft clauses remained = 2296
c MRWTO encoding for Pseudo-Boolean Constraints
c sizeMax=1679
c No.0 Divisor=12	generated by pow1
c No.1 Divisor=12	generated by pow1
c No.2 Divisor=12	generated by pow1
c p0= 12	p1= 12	p2= 12	
c number of digits = 4
c linkingVar[0].size = 12, linkingVar[1].size = 12, linkingVar[2].size = 12, linkingVar[3].size = 1, 
c Pseudo-Boolean Constraints: 47220 variables and 444589 clauses
c Sum of weights = 178994
c A number of soft clauses remained = 2296
c MRWTO encoding for Pseudo-Boolean Constraints
c sizeMax=1679
c No.0 Divisor=12	generated by pow1
c No.1 Divisor=12	generated by pow1
c No.2 Divisor=12	generated by pow1
c p0= 12	p1= 12	p2= 12	
c number of digits = 4
c linkingVar[0].size = 12, linkingVar[1].size = 12, linkingVar[2].size = 12, linkingVar[3].size = 1, 
c Pseudo-Boolean Constraints: 47220 variables and 444589 clauses
c Sum of weights = 178994
c A number of soft clauses remained = 2296
c MRWTO encoding for Pseudo-Boolean Constraints
c sizeMax=1679
c No.0 Divisor=12	generated by pow1
c No.1 Divisor=12	generated by pow1
c No.2 Divisor=12	generated by pow1
c p0= 12	p1= 12	p2= 12	
c number of digits = 4
c linkingVar[0].size = 12, linkingVar[1].size = 12, linkingVar[2].size = 12, linkingVar[3].size = 1, 
c Pseudo-Boolean Constraints: 47220 variables and 444589 clauses
c Sum of weights = 178994
c A number of soft clauses remained = 2296
c MRWTO encoding for Pseudo-Boolean Constraints
c sizeMax=1679
c No.0 Divisor=12	generated by pow1
c No.1 Divisor=12	generated by pow1
c No.2 Divisor=12	generated by pow1
c p0= 12	p1= 12	p2= 12	
c number of digits = 4
c linkingVar[0].size = 12, linkingVar[1].size = 12, linkingVar[2].size = 12, linkingVar[3].size = 1, 
c Pseudo-Boolean Constraints: 47220 variables and 444589 clauses
c last restart ## conflicts  :  130 8683 
o 1298 | cpuTime 0.962896 s
c last restart ## conflicts  :  399 6637 
o 1165 | cpuTime 1.39712 s
c last restart ## conflicts  :  155 6574 
o 956 | cpuTime 1.78302 s
c last restart ## conflicts  :  675 4434 
o 881 | cpuTime 2.85031 s
c last restart ## conflicts  :  392 4798 
o 859 | cpuTime 4.15804 s
c last restart ## conflicts  :  647 4355 
o 858 | cpuTime 7.63155 s
c last restart ## conflicts  :  287 7343 
o 803 | cpuTime 8.53004 s
c last restart ## conflicts  :  371 6183 
o 661 | cpuTime 9.04315 s
c last restart ## conflicts  :  285 5897 
o 626 | cpuTime 15.1301 s
c last restart ## conflicts  :  165 3861 
o 605 | cpuTime 21.276 s
c last restart ## conflicts  :  180 3654 
o 474 | cpuTime 23.2173 s
c last restart ## conflicts  :  711 3100 
o 446 | cpuTime 102.512 s
c last restart ## conflicts  :  379 3527 
o 427 | cpuTime 511.333 s
s UNKNOWN
c Search is stopped by a limit (maybe time-limit)
cr positiVarArr: [ | 28(1->21) | 93(1->37) | 109(1->4) | 189(1->35) | 216(1->13) | 293(1->41) | 326(1->25) | 362(1->12) | 395(2->1) | 462(3->14) | 504(4->7) | 585(5->39) | 612(6->17) | 652(7->8) | 702(8->9) | 745(9->3) | 785(10->1) | 850(11->10) | 913(12->24) | 958(13->20) | 982(14->1) | 1033(15->1) | 1112(16->27) | 1156(17->22) | 1202(18->19) | 1233(19->1) | 1313(20->32) | 1363(21->33) | 1402(22->23) | 1468(23->40) | 1506(24->29) | 1544(25->18) | 1575(26->1) | 1654(27->30) | 1704(28->31) | 1750(29->28) | 1797(30->26) | 1831(31->11) | 1867(32->1) | 1954(33->36) | 1973(34->6) | 2031(35->15) | 2070(36->5) | 2130(37->16) | 2197(38->34) | 2254(39->42) | 2263(40->2) | 2348(41->38) | 2358(42->1) | ]
cr the 1-th chain: [ 1->21->33->36->5->39->42->1 ] (#non-depot=6) {#cumul.=7}
cr the 2-th chain: [ 1->37->16->27->30->26->1 ] (#non-depot=5) {#cumul.=12}
cr the 3-th chain: [ 1->4->7->8->9->3->14->1 ] (#non-depot=6) {#cumul.=18}
cr the 4-th chain: [ 1->35->15->1 ] (#non-depot=2) {#cumul.=20}
cr the 5-th chain: [ 1->13->20->32->1 ] (#non-depot=3) {#cumul.=23}
cr the 6-th chain: [ 1->41->38->34->6->17->22->23->40->2->1 ] (#non-depot=9) {#cumul.=32}
cr the 7-th chain: [ 1->25->18->19->1 ] (#non-depot=3) {#cumul.=35}
cr the 8-th chain: [ 1->12->24->29->28->31->11->10->1 ] (#non-depot=7) {#cumul.=42}
c Latest Answer = 0 by 14 loops
c restarts              : 64233
c conflicts             : 15856587       (4413 /sec)
c decisions             : 91259052       (0.00 % random) (25397 /sec)
c propagations          : 33931113210    (9442924 /sec)
c conflict literals     : 1752960763     (39.37 % deleted)
c Memory used           : 719.00 MB
c CPU time              : 3593.28 s
